0000000000000000
0000000000000000
0000000000000000
0001100000001000
0000110000011000
0000011000010000
0000001100110000
0000001110110000
0000011011100000
0000010001000000
0000010001100000
0000010000110000
0000110000011000
0001110000001100
0000000000000000
0000000000000000
